
Gurobi 8.1.1 (mac64) logging started Thu Oct 17 11:11:56 2019

Academic license - for non-commercial use only

Gurobi Optimizer version 8.1.1 build v8.1.1rc0 (mac64)
Copyright (c) 2019, Gurobi Optimization, LLC

Read LP format model from file wormhole_78e468b6-ad4c-4591-bc06-a9aa82f0fb75.lp
Reading time = 0.00 seconds
obj: 67 rows, 39 columns, 154 nonzeros
Optimize a model with 67 rows, 39 columns and 154 nonzeros
Variable types: 0 continuous, 39 integer (39 binary)
Coefficient statistics:
  Matrix range     [1e+00, 1e+00]
  Objective range  [2e+00, 2e+00]
  Bounds range     [1e+00, 1e+00]
  RHS range        [1e+00, 1e+00]
Found heuristic solution: objective 18.0000000
Found heuristic solution: objective 12.0000000
Presolve removed 37 rows and 12 columns
Presolve time: 0.00s
Presolved: 30 rows, 27 columns, 77 nonzeros
Variable types: 0 continuous, 27 integer (27 binary)

Root relaxation: objective 9.073171e+00, 26 iterations, 0.00 seconds

    Nodes    |    Current Node    |     Objective Bounds      |     Work
 Expl Unexpl |  Obj  Depth IntInf | Incumbent    BestBd   Gap | It/Node Time

*    0     0               0      10.0000000   10.00000  0.00%     -    0s

Explored 0 nodes (30 simplex iterations) in 0.01 seconds
Thread count was 4 (of 4 available processors)

Solution count 3: 10 12 18 

Optimal solution found (tolerance 1.00e-04)
Best objective 1.000000000000e+01, best bound 1.000000000000e+01, gap 0.0000%

Wrote result file 'ab186929-f89b-4320-9eb1-cd596f86747b.sol'


Gurobi 8.1.1 (mac64) logging started Thu Oct 17 11:12:34 2019

Academic license - for non-commercial use only

Gurobi Optimizer version 8.1.1 build v8.1.1rc0 (mac64)
Copyright (c) 2019, Gurobi Optimization, LLC

Read LP format model from file wormhole_662f5267-0136-4ff2-9e17-2d50e9b8677f.lp
Reading time = 0.00 seconds
obj: 67 rows, 39 columns, 154 nonzeros
Optimize a model with 67 rows, 39 columns and 154 nonzeros
Variable types: 0 continuous, 39 integer (39 binary)
Coefficient statistics:
  Matrix range     [1e+00, 1e+00]
  Objective range  [2e+00, 2e+00]
  Bounds range     [1e+00, 1e+00]
  RHS range        [1e+00, 1e+00]
Found heuristic solution: objective 18.0000000
Found heuristic solution: objective 12.0000000
Presolve removed 37 rows and 12 columns
Presolve time: 0.00s
Presolved: 30 rows, 27 columns, 77 nonzeros
Variable types: 0 continuous, 27 integer (27 binary)

Root relaxation: objective 9.073171e+00, 26 iterations, 0.00 seconds

    Nodes    |    Current Node    |     Objective Bounds      |     Work
 Expl Unexpl |  Obj  Depth IntInf | Incumbent    BestBd   Gap | It/Node Time

*    0     0               0      10.0000000   10.00000  0.00%     -    0s

Explored 0 nodes (31 simplex iterations) in 0.00 seconds
Thread count was 4 (of 4 available processors)

Solution count 3: 10 12 18 

Optimal solution found (tolerance 1.00e-04)
Best objective 1.000000000000e+01, best bound 1.000000000000e+01, gap 0.0000%

Wrote result file '4304da69-1e47-4038-86a2-1cdc8007eaac.sol'


Gurobi 8.1.1 (mac64) logging started Thu Oct 17 12:22:59 2019

Academic license - for non-commercial use only

Gurobi Optimizer version 8.1.1 build v8.1.1rc0 (mac64)
Copyright (c) 2019, Gurobi Optimization, LLC

Read LP format model from file wormhole_bdc80563-0dc7-4b96-a406-bc1bbbb46c0b.lp
Reading time = 0.00 seconds
obj: 67 rows, 39 columns, 154 nonzeros
Optimize a model with 67 rows, 39 columns and 154 nonzeros
Variable types: 0 continuous, 39 integer (39 binary)
Coefficient statistics:
  Matrix range     [1e+00, 1e+00]
  Objective range  [2e+00, 2e+00]
  Bounds range     [1e+00, 1e+00]
  RHS range        [1e+00, 1e+00]
Found heuristic solution: objective 18.0000000
Presolve removed 37 rows and 12 columns
Presolve time: 0.01s
Presolved: 30 rows, 27 columns, 77 nonzeros
Variable types: 0 continuous, 27 integer (27 binary)

Root relaxation: objective 9.073171e+00, 26 iterations, 0.00 seconds

    Nodes    |    Current Node    |     Objective Bounds      |     Work
 Expl Unexpl |  Obj  Depth IntInf | Incumbent    BestBd   Gap | It/Node Time

     0     0    9.07317    0   24   18.00000    9.07317  49.6%     -    0s
H    0     0                      12.0000000    9.07317  24.4%     -    0s
H    0     0                      10.0000000    9.07317  9.27%     -    0s

Explored 1 nodes (27 simplex iterations) in 0.02 seconds
Thread count was 4 (of 4 available processors)

Solution count 3: 10 12 18 

Optimal solution found (tolerance 1.00e-04)
Best objective 1.000000000000e+01, best bound 1.000000000000e+01, gap 0.0000%

Wrote result file '840743da-6141-4e55-82dc-efaed5463ab6.sol'


Gurobi 8.1.1 (mac64) logging started Thu Oct 17 12:23:11 2019

Academic license - for non-commercial use only

Gurobi Optimizer version 8.1.1 build v8.1.1rc0 (mac64)
Copyright (c) 2019, Gurobi Optimization, LLC

Read LP format model from file wormhole_bd45de45-91c1-442d-a205-0a65f477334f.lp
Reading time = 0.00 seconds
obj: 67 rows, 39 columns, 154 nonzeros
Optimize a model with 67 rows, 39 columns and 154 nonzeros
Variable types: 0 continuous, 39 integer (39 binary)
Coefficient statistics:
  Matrix range     [1e+00, 1e+00]
  Objective range  [2e+00, 2e+00]
  Bounds range     [1e+00, 1e+00]
  RHS range        [1e+00, 1e+00]
Found heuristic solution: objective 18.0000000
Found heuristic solution: objective 12.0000000
Presolve removed 37 rows and 12 columns
Presolve time: 0.00s
Presolved: 30 rows, 27 columns, 77 nonzeros
Variable types: 0 continuous, 27 integer (27 binary)

Root relaxation: objective 9.073171e+00, 26 iterations, 0.00 seconds

    Nodes    |    Current Node    |     Objective Bounds      |     Work
 Expl Unexpl |  Obj  Depth IntInf | Incumbent    BestBd   Gap | It/Node Time

*    0     0               0      10.0000000   10.00000  0.00%     -    0s

Explored 0 nodes (32 simplex iterations) in 0.00 seconds
Thread count was 4 (of 4 available processors)

Solution count 3: 10 12 18 

Optimal solution found (tolerance 1.00e-04)
Best objective 1.000000000000e+01, best bound 1.000000000000e+01, gap 0.0000%

Wrote result file '67114921-09ec-4795-93d5-6b8f3465b7ba.sol'


Gurobi 8.1.1 (mac64) logging started Thu Oct 17 12:24:01 2019

Academic license - for non-commercial use only

Gurobi Optimizer version 8.1.1 build v8.1.1rc0 (mac64)
Copyright (c) 2019, Gurobi Optimization, LLC

Read LP format model from file wormhole_fa6366ba-86f1-4204-a9f1-3e9c225b9310.lp
Reading time = 0.00 seconds
obj: 67 rows, 39 columns, 154 nonzeros
Optimize a model with 67 rows, 39 columns and 154 nonzeros
Variable types: 0 continuous, 39 integer (39 binary)
Coefficient statistics:
  Matrix range     [1e+00, 1e+00]
  Objective range  [2e+00, 2e+00]
  Bounds range     [1e+00, 1e+00]
  RHS range        [1e+00, 1e+00]
Found heuristic solution: objective 18.0000000
Presolve removed 37 rows and 12 columns
Presolve time: 0.00s
Presolved: 30 rows, 27 columns, 77 nonzeros
Variable types: 0 continuous, 27 integer (27 binary)

Root relaxation: objective 9.073171e+00, 26 iterations, 0.00 seconds

    Nodes    |    Current Node    |     Objective Bounds      |     Work
 Expl Unexpl |  Obj  Depth IntInf | Incumbent    BestBd   Gap | It/Node Time

     0     0    9.07317    0   24   18.00000    9.07317  49.6%     -    0s
H    0     0                      14.0000000    9.07317  35.2%     -    0s
H    0     0                      12.0000000    9.07317  24.4%     -    0s
*    0     0               0      10.0000000   10.00000  0.00%     -    0s

Cutting planes:
  Gomory: 1
  Zero half: 2

Explored 1 nodes (33 simplex iterations) in 0.01 seconds
Thread count was 4 (of 4 available processors)

Solution count 4: 10 12 14 18 

Optimal solution found (tolerance 1.00e-04)
Best objective 1.000000000000e+01, best bound 1.000000000000e+01, gap 0.0000%

Wrote result file 'dd42aea7-96d0-4f06-97cf-38ed676c6a43.sol'


Gurobi 8.1.1 (mac64) logging started Thu Oct 17 12:25:09 2019

Academic license - for non-commercial use only

Gurobi Optimizer version 8.1.1 build v8.1.1rc0 (mac64)
Copyright (c) 2019, Gurobi Optimization, LLC

Read LP format model from file wormhole_6f76ac8b-4502-4ab8-b8b6-9919d501404c.lp
Reading time = 0.00 seconds
obj: 67 rows, 39 columns, 154 nonzeros
Optimize a model with 67 rows, 39 columns and 154 nonzeros
Variable types: 0 continuous, 39 integer (39 binary)
Coefficient statistics:
  Matrix range     [1e+00, 1e+00]
  Objective range  [2e+00, 2e+00]
  Bounds range     [1e+00, 1e+00]
  RHS range        [1e+00, 1e+00]
Found heuristic solution: objective 18.0000000
Found heuristic solution: objective 12.0000000
Presolve removed 37 rows and 12 columns
Presolve time: 0.00s
Presolved: 30 rows, 27 columns, 77 nonzeros
Variable types: 0 continuous, 27 integer (27 binary)

Root relaxation: objective 9.073171e+00, 26 iterations, 0.00 seconds

    Nodes    |    Current Node    |     Objective Bounds      |     Work
 Expl Unexpl |  Obj  Depth IntInf | Incumbent    BestBd   Gap | It/Node Time

*    0     0               0      10.0000000   10.00000  0.00%     -    0s

Explored 0 nodes (30 simplex iterations) in 0.00 seconds
Thread count was 4 (of 4 available processors)

Solution count 3: 10 12 18 

Optimal solution found (tolerance 1.00e-04)
Best objective 1.000000000000e+01, best bound 1.000000000000e+01, gap 0.0000%

Wrote result file 'b786c917-8a41-4f77-9197-548f473fa3c9.sol'


Gurobi 8.1.1 (mac64) logging started Thu Oct 17 12:39:00 2019

Academic license - for non-commercial use only

Gurobi Optimizer version 8.1.1 build v8.1.1rc0 (mac64)
Copyright (c) 2019, Gurobi Optimization, LLC

Read LP format model from file wormhole_e8796069-0473-45ef-9e43-f6f8ebd85252.lp
Reading time = 0.00 seconds
obj: 67 rows, 39 columns, 154 nonzeros
Optimize a model with 67 rows, 39 columns and 154 nonzeros
Variable types: 0 continuous, 39 integer (39 binary)
Coefficient statistics:
  Matrix range     [1e+00, 1e+00]
  Objective range  [2e+00, 2e+00]
  Bounds range     [1e+00, 1e+00]
  RHS range        [1e+00, 1e+00]
Found heuristic solution: objective 18.0000000
Found heuristic solution: objective 12.0000000
Presolve removed 37 rows and 12 columns
Presolve time: 0.00s
Presolved: 30 rows, 27 columns, 77 nonzeros
Variable types: 0 continuous, 27 integer (27 binary)

Root relaxation: objective 9.073171e+00, 26 iterations, 0.00 seconds

    Nodes    |    Current Node    |     Objective Bounds      |     Work
 Expl Unexpl |  Obj  Depth IntInf | Incumbent    BestBd   Gap | It/Node Time

*    0     0               0      10.0000000   10.00000  0.00%     -    0s

Explored 0 nodes (39 simplex iterations) in 0.00 seconds
Thread count was 4 (of 4 available processors)

Solution count 3: 10 12 18 

Optimal solution found (tolerance 1.00e-04)
Best objective 1.000000000000e+01, best bound 1.000000000000e+01, gap 0.0000%

Wrote result file '4620b4ae-0878-444d-b8ca-2ab9462cc99a.sol'


Gurobi 8.1.1 (mac64) logging started Thu Oct 17 12:39:20 2019

Academic license - for non-commercial use only

Gurobi Optimizer version 8.1.1 build v8.1.1rc0 (mac64)
Copyright (c) 2019, Gurobi Optimization, LLC

Read LP format model from file wormhole_a2d03336-5061-4b7f-9bd2-53593222f809.lp
Reading time = 0.00 seconds
obj: 67 rows, 39 columns, 154 nonzeros
Optimize a model with 67 rows, 39 columns and 154 nonzeros
Variable types: 0 continuous, 39 integer (39 binary)
Coefficient statistics:
  Matrix range     [1e+00, 1e+00]
  Objective range  [2e+00, 2e+00]
  Bounds range     [1e+00, 1e+00]
  RHS range        [1e+00, 1e+00]
Found heuristic solution: objective 18.0000000
Presolve removed 37 rows and 12 columns
Presolve time: 0.00s
Presolved: 30 rows, 27 columns, 77 nonzeros
Variable types: 0 continuous, 27 integer (27 binary)

Root relaxation: objective 9.073171e+00, 26 iterations, 0.00 seconds

    Nodes    |    Current Node    |     Objective Bounds      |     Work
 Expl Unexpl |  Obj  Depth IntInf | Incumbent    BestBd   Gap | It/Node Time

     0     0    9.07317    0   24   18.00000    9.07317  49.6%     -    0s
H    0     0                      10.0000000    9.07317  9.27%     -    0s

Explored 1 nodes (27 simplex iterations) in 0.00 seconds
Thread count was 4 (of 4 available processors)

Solution count 2: 10 18 

Optimal solution found (tolerance 1.00e-04)
Best objective 1.000000000000e+01, best bound 1.000000000000e+01, gap 0.0000%

Wrote result file '6aa132fc-d02e-43f8-825a-fb3325e1fd29.sol'

